p edge 104 220
e 1 2
e 1 4
e 1 6
e 1 10
e 1 13
e 1 14
e 1 39
e 1 50
e 1 81
e 2 5
e 2 7
e 2 11
e 2 20
e 2 46
e 2 50
e 2 86
e 2 93
e 3 11
e 3 13
e 3 22
e 3 42
e 3 50
e 3 57
e 3 64
e 3 73
e 4 6
e 4 10
e 4 14
e 4 17
e 4 35
e 4 39
e 4 72
e 5 36
e 5 46
e 5 93
e 5 94
e 5 95
e 6 8
e 6 14
e 6 16
e 6 29
e 6 39
e 6 41
e 6 43
e 6 57
e 6 74
e 7 11
e 7 13
e 7 32
e 7 48
e 8 16
e 8 18
e 8 21
e 8 25
e 8 40
e 8 43
e 8 56
e 8 61
e 8 65
e 8 66
e 8 74
e 8 89
e 9 17
e 9 18
e 9 19
e 9 29
e 9 30
e 9 41
e 9 49
e 9 76
e 10 24
e 10 40
e 10 44
e 10 58
e 10 70
e 11 15
e 11 22
e 11 42
e 11 64
e 12 14
e 12 17
e 12 24
e 12 26
e 12 31
e 12 60
e 12 68
e 12 69
e 12 79
e 12 97
e 13 34
e 13 48
e 13 50
e 14 17
e 14 31
e 14 32
e 14 38
e 14 39
e 14 62
e 14 68
e 14 69
e 15 33
e 15 43
e 15 83
e 16 21
e 16 25
e 16 43
e 16 56
e 16 61
e 16 65
e 16 74
e 16 99
e 17 29
e 17 41
e 17 68
e 17 69
e 17 79
e 18 21
e 18 40
e 18 70
e 18 89
e 19 39
e 20 22
e 20 34
e 20 37
e 20 51
e 20 86
e 21 25
e 21 40
e 21 56
e 21 61
e 21 89
e 22 34
e 22 42
e 22 64
e 23 28
e 23 64
e 24 26
e 24 31
e 24 40
e 24 44
e 24 90
e 24 91
e 24 92
e 25 45
e 25 56
e 25 59
e 25 87
e 26 36
e 26 71
e 26 82
e 26 90
e 26 91
e 26 92
e 26 97
e 26 104
e 27 53
e 27 75
e 28 37
e 28 52
e 28 64
e 29 41
e 29 47
e 29 49
e 29 57
e 29 73
e 29 80
e 29 103
e 30 49
e 31 32
e 31 78
e 32 48
e 32 50
e 32 62
e 33 43
e 34 48
e 34 78
e 36 71
e 36 104
e 37 46
e 38 48
e 40 44
e 40 89
e 41 57
e 42 63
e 42 64
e 42 67
e 42 98
e 43 55
e 43 74
e 44 60
e 44 85
e 45 88
e 46 95
e 47 103
e 49 73
e 49 76
e 49 80
e 52 63
e 53 75
e 54 59
e 54 96
e 55 61
e 57 73
e 58 70
e 59 87
e 63 67
e 65 66
e 66 100
e 68 69
e 68 79
e 69 79
e 71 72
e 71 84
e 72 84
e 73 80
e 77 79
e 90 91
e 90 92
e 91 92
e 101 102
